; benchmark generated from python API
(set-info :status unknown)
(declare-fun v26 () Bool)
(declare-fun v30 () Bool)
(declare-fun v28 () Bool)
(declare-fun v24 () Bool)
(declare-fun v22 () Bool)
(declare-fun v20 () Bool)
(declare-fun v18 () Bool)
(declare-fun v16 () Bool)
(declare-fun v14 () Bool)
(declare-fun v12 () Bool)
(declare-fun v30_prime () Bool)
(declare-fun v26_prime () Bool)
(declare-fun i10 () Bool)
(declare-fun v28_prime () Bool)
(declare-fun i8 () Bool)
(declare-fun v24_prime () Bool)
(declare-fun v22_prime () Bool)
(declare-fun i6 () Bool)
(declare-fun v20_prime () Bool)
(declare-fun v18_prime () Bool)
(declare-fun i4 () Bool)
(declare-fun v16_prime () Bool)
(declare-fun v14_prime () Bool)
(declare-fun i2 () Bool)
(declare-fun v12_prime () Bool)
(assert
 (= v26 true))
(assert
 (= v30 false))
(assert
 (let (($x70 (not v30)))
 (let (($x420 (and v26 $x70)))
 (let (($x55 (not v28)))
 (let (($x50 (not v26)))
 (let (($x51 (not v24)))
 (let (($x45 (not v22)))
 (let (($x46 (not v20)))
 (let (($x40 (not v18)))
 (let (($x41 (not v16)))
 (let (($x35 (not v14)))
 (let (($x36 (not v12)))
 (let (($x141 (and $x36 $x35 $x41 $x40 $x46 $x45 $x51 $x50 $x55 $x70)))
 (let (($x587 (and $x141)))
 (let (($x183 (not (= v14 v30_prime))))
 (let (($x58 (and (not (and v30 $x55)) i10)))
 (let (($x139 (= v28_prime $x58)))
 (let (($x290 (not (= v30 v26_prime))))
 (let (($x54 (and (not (and $x50 $x51)) i8)))
 (let (($x137 (= v24_prime $x54)))
 (let (($x136 (= v22_prime v26)))
 (let (($x49 (and (not (and $x45 $x46)) i6)))
 (let (($x135 (= v20_prime $x49)))
 (let (($x134 (= v18_prime v22)))
 (let (($x44 (and (not (and $x40 $x41)) i4)))
 (let (($x133 (= v16_prime $x44)))
 (let (($x132 (= v14_prime v18)))
 (let (($x39 (and (not (and $x35 $x36)) i2)))
 (let (($x131 (= v12_prime $x39)))
 (let (($x188 (not $x420)))
 (let (($x626 (and $x587 $x188 (and $x131 $x132 $x133 $x134 $x135 $x136 $x137 $x290 $x139 $x183) (and v26_prime (not v30_prime)))))
 (not (and (not $x626) (not (and $x587 $x420)))))))))))))))))))))))))))))))))))
(check-sat)
